//Dat File

outFile="MPVSBPP_SET1_IT200_ITV2_NT1_TS3_WT1_VT1_REP3";
m=200;
o=42;
p=3;
numVTypes=1;

demand = [5, 5, 7, 11, 6, 9, 5, 6, 4, 5, 7, 5, 11, 6, 5, 10, 4, 4, 7, 1, 5, 8, 1, 3, 3, 3, 5, 2, 3, 5, 6, 11, 9, 9, 10, 4, 7, 6, 8, 7, 8, 8, 5, 3, 9, 8, 8, 9, 2, 7, 1, 9, 4, 3, 7, 3, 1, 2, 8, 1, 3, 8, 5, 4, 5, 10, 4, 1, 11, 10, 8, 9, 11, 1, 5, 1, 9, 8, 8, 4, 2, 11, 11, 4, 6, 1, 10, 3, 5, 11, 8, 10, 7, 8, 6, 7, 4, 3, 3, 4, 17, 14, 12, 19, 18, 12, 16, 13, 13, 14, 19, 14, 15, 16, 12, 12, 18, 13, 15, 15, 15, 13, 15, 13, 13, 13, 15, 12, 14, 18, 19, 19, 15, 13, 19, 19, 15, 15, 12, 16, 14, 17, 15, 15, 19, 19, 19, 18, 13, 18, 18, 15, 19, 12, 15, 12, 16, 17, 14, 16, 12, 15, 12, 15, 18, 14, 17, 17, 16, 14, 16, 14, 17, 13, 14, 12, 19, 18, 12, 17, 13, 15, 15, 14, 19, 19, 14, 12, 14, 12, 16, 12, 17, 15, 19, 12, 19, 18, 12, 17];
Depot_Cap = [30000, 30000, 30000];
Tarif = [10, 3, 7];
VeicVolume = [100];
VeicCost = [100];
VeicType = [1, 1, 1, 1, 1, 1, 1, 1, 1, 1, 1, 1, 1, 1, 1, 1, 1, 1, 1, 1, 1, 1, 1, 1, 1, 1, 1, 1, 1, 1, 1, 1, 1, 1, 1, 1, 1, 1, 1, 1, 1, 1];
Elect_vehicle = [[70, 100, 30], [70, 100, 30], [70, 100, 30], [70, 100, 30], [70, 100, 30], [70, 100, 30], [70, 100, 30], [70, 100, 30], [70, 100, 30], [70, 100, 30], [70, 100, 30], [70, 100, 30], [70, 100, 30], [70, 100, 30], [70, 100, 30], [70, 100, 30], [70, 100, 30], [70, 100, 30], [70, 100, 30], [70, 100, 30], [70, 100, 30], [70, 100, 30], [70, 100, 30], [70, 100, 30], [70, 100, 30], [70, 100, 30], [70, 100, 30], [70, 100, 30], [70, 100, 30], [70, 100, 30], [70, 100, 30], [70, 100, 30], [70, 100, 30], [70, 100, 30], [70, 100, 30], [70, 100, 30], [70, 100, 30], [70, 100, 30], [70, 100, 30], [70, 100, 30], [70, 100, 30], [70, 100, 30]];